c This is QMaxSAT 2017 based on 14.07
c This is Glucose 3.0
c This is MiniSat 2.2.0
c WARNING: for repeatability, setting FPU to use double precision
c card = mrwto, comp = 0, pmodel = 0, narr = 2, mct = 24, verb = 0
cr firstCPXsol 0 0 0
c top = 81479
c |  Number of variables:    12790                                            |
c |  Number of clauses:      2869300                                          |
c |  Weight of hard clauses: 81479                                            |
c |  Number of soft clauses: 1104                                             |
c |  Number of unit soft clauses: 1104                                        |
c |  Maximum Cardinality (by unit): 162956       (162956      )               |
c last restart ## conflicts  :  466 3383 
o 2003 | cpuTime 1.79393 s
c Sum of weights = 81478
c A number of soft clauses remained = 552
c MRWTO encoding for Pseudo-Boolean Constraints
c sizeMax=2003
c No.0 Divisor=13	generated by pow1
c No.1 Divisor=13	generated by pow1
c No.2 Divisor=13	generated by pow1
c p0= 13	p1= 13	p2= 13	
c number of digits = 4
c linkingVar[0].size = 13, linkingVar[1].size = 13, linkingVar[2].size = 12, linkingVar[3].size = 1, 
c Pseudo-Boolean Constraints: 12678 variables and 132322 clauses
c Sum of weights = 81478
c A number of soft clauses remained = 552
c MRWTO encoding for Pseudo-Boolean Constraints
c sizeMax=2003
c No.0 Divisor=13	generated by pow1
c No.1 Divisor=13	generated by pow1
c No.2 Divisor=13	generated by pow1
c p0= 13	p1= 13	p2= 13	
c number of digits = 4
c linkingVar[0].size = 13, linkingVar[1].size = 13, linkingVar[2].size = 12, linkingVar[3].size = 1, 
c Pseudo-Boolean Constraints: 12678 variables and 132322 clauses
c last restart ## conflicts  :  103 4238 
o 1615 | cpuTime 3.71812 s
c last restart ## conflicts  :  293 4336 
o 1568 | cpuTime 6.7954 s
c last restart ## conflicts  :  285 3632 
o 1547 | cpuTime 8.53147 s
c last restart ## conflicts  :  181 4137 
o 1326 | cpuTime 9.62948 s
c last restart ## conflicts  :  189 3976 
o 1250 | cpuTime 11.0684 s
c last restart ## conflicts  :  628 3573 
o 1159 | cpuTime 24.6859 s
c last restart ## conflicts  :  456 3983 
o 1130 | cpuTime 26.2567 s
c last restart ## conflicts  :  235 5291 
o 1042 | cpuTime 32.3445 s
c last restart ## conflicts  :  169 3849 
o 1013 | cpuTime 72.0869 s
c last restart ## conflicts  :  372 3725 
o 990 | cpuTime 103.755 s
c last restart ## conflicts  :  1089 3806 
o 985 | cpuTime 155.749 s
c last restart ## conflicts  :  894 5405 
o 958 | cpuTime 247.651 s
c last restart ## conflicts  :  1166 3670 
o 923 | cpuTime 274.627 s
c last restart ## conflicts  :  319 5773 
o 910 | cpuTime 467.847 s
c last restart ## conflicts  :  128 6085 
o 884 | cpuTime 515.986 s
c last restart ## conflicts  :  4982 4664 
o 868 | cpuTime 634.087 s
c last restart ## conflicts  :  816 5548 
o 840 | cpuTime 3200.16 s
s UNKNOWN
c Search is stopped by a limit (maybe time-limit)
cr positiVarArr: [ | 16@1(1->16) | 65@1(3->17) | 84@1(4->12) | 215@1(9->23) | 230@1(10->14) | 243@1(11->3) | 265@1(12->1) | 297@1(13->9) | 325@1(14->13) | 371@1(16->11) | 394@1(17->10) | 532@1(23->4) | 582@2(1->6) | 605@2(2->5) | 696@2(5->24) | 703@2(6->7) | 728@2(7->8) | 765@2(8->21) | 932@2(15->20) | 1003@2(18->19) | 1023@2(19->15) | 1034@2(20->2) | 1078@2(21->22) | 1098@2(22->18) | 1129@2(24->1) | ]
cr the 1-th chain: [ 1->16->11->3->17->10->14->13->9->23->4->12->1 ] (#non-depot=11) {#cumul.=12}
cr the 2-th chain: [ 1->6->7->8->21->22->18->19->15->20->2->5->24->1 ] (#non-depot=12) {#cumul.=24}
c Latest Answer = 0 by 18 loops
c restarts              : 62681
c conflicts             : 14921163       (4152 /sec)
c decisions             : 47967361       (0.00 % random) (13348 /sec)
c propagations          : 9720528669     (2704928 /sec)
c conflict literals     : 2793119881     (26.42 % deleted)
c Memory used           : 643.00 MB
c CPU time              : 3593.64 s
